38
75
52	21
51	16
50	10
49	18
48	12
47	11
46	9
45	16
44	22
43	9
42	9
41	9
40	17
39	10
38	13
37	13
36	12
35	13
34	19
33	8
32	10
31	15
30	12
29	8
28	19
27	16
26	9
25	9
24	14
23	13
22	15
21	9
20	13
19	10
18	15
17	10
16	16
15	20
